(set-info :category "industrial")
(set-info :status sat)
(declare-fun x00 () (_ BitVec 8))
(declare-fun x02 () (_ BitVec 8))
(declare-fun x04 () (_ BitVec 8))
(declare-fun x05 () (_ BitVec 8))
(declare-fun x06 () (_ BitVec 8))
(declare-fun x07 () (_ BitVec 8))
(declare-fun x11 () (_ BitVec 8))
(declare-fun x12 () (_ BitVec 8))
(declare-fun x13 () (_ BitVec 8))
(declare-fun x15 () (_ BitVec 8))
(declare-fun x18 () (_ BitVec 8))
(declare-fun x21 () (_ BitVec 8))
(declare-fun x23 () (_ BitVec 8))
(declare-fun x26 () (_ BitVec 8))
(declare-fun x27 () (_ BitVec 8))
(declare-fun x30 () (_ BitVec 8))
(declare-fun x31 () (_ BitVec 8))
(declare-fun x34 () (_ BitVec 8))
(declare-fun x36 () (_ BitVec 8))
(declare-fun x37 () (_ BitVec 8))
(declare-fun x38 () (_ BitVec 8))
(declare-fun x40 () (_ BitVec 8))
(declare-fun x41 () (_ BitVec 8))
(declare-fun x43 () (_ BitVec 8))
(declare-fun x45 () (_ BitVec 8))
(declare-fun x47 () (_ BitVec 8))
(declare-fun x50 () (_ BitVec 8))
(declare-fun x51 () (_ BitVec 8))
(declare-fun x55 () (_ BitVec 8))
(declare-fun x58 () (_ BitVec 8))
(declare-fun x60 () (_ BitVec 8))
(declare-fun x61 () (_ BitVec 8))
(declare-fun x62 () (_ BitVec 8))
(declare-fun x66 () (_ BitVec 8))
(declare-fun x68 () (_ BitVec 8))
(declare-fun x71 () (_ BitVec 8))
(declare-fun x74 () (_ BitVec 8))
(declare-fun x75 () (_ BitVec 8))
(declare-fun x76 () (_ BitVec 8))
(declare-fun x78 () (_ BitVec 8))
(declare-fun x80 () (_ BitVec 8))
(declare-fun x82 () (_ BitVec 8))
(declare-fun x83 () (_ BitVec 8))
(declare-fun x85 () (_ BitVec 8))
(declare-fun x86 () (_ BitVec 8))
(declare-fun x87 () (_ BitVec 8))
(assert (bvult x00 (_ bv9 8)))
(assert (bvult x02 (_ bv9 8)))
(assert (bvult x04 (_ bv9 8)))
(assert (bvult x05 (_ bv9 8)))
(assert (bvult x06 (_ bv9 8)))
(assert (bvult x07 (_ bv9 8)))
(assert (bvult x11 (_ bv9 8)))
(assert (bvult x12 (_ bv9 8)))
(assert (bvult x13 (_ bv9 8)))
(assert (bvult x15 (_ bv9 8)))
(assert (bvult x18 (_ bv9 8)))
(assert (bvult x21 (_ bv9 8)))
(assert (bvult x23 (_ bv9 8)))
(assert (bvult x26 (_ bv9 8)))
(assert (bvult x27 (_ bv9 8)))
(assert (bvult x30 (_ bv9 8)))
(assert (bvult x31 (_ bv9 8)))
(assert (bvult x34 (_ bv9 8)))
(assert (bvult x36 (_ bv9 8)))
(assert (bvult x37 (_ bv9 8)))
(assert (bvult x38 (_ bv9 8)))
(assert (bvult x40 (_ bv9 8)))
(assert (bvult x41 (_ bv9 8)))
(assert (bvult x43 (_ bv9 8)))
(assert (bvult x45 (_ bv9 8)))
(assert (bvult x47 (_ bv9 8)))
(assert (bvult x50 (_ bv9 8)))
(assert (bvult x51 (_ bv9 8)))
(assert (bvult x55 (_ bv9 8)))
(assert (bvult x58 (_ bv9 8)))
(assert (bvult x60 (_ bv9 8)))
(assert (bvult x61 (_ bv9 8)))
(assert (bvult x62 (_ bv9 8)))
(assert (bvult x66 (_ bv9 8)))
(assert (bvult x68 (_ bv9 8)))
(assert (bvult x71 (_ bv9 8)))
(assert (bvult x74 (_ bv9 8)))
(assert (bvult x75 (_ bv9 8)))
(assert (bvult x76 (_ bv9 8)))
(assert (bvult x78 (_ bv9 8)))
(assert (bvult x80 (_ bv9 8)))
(assert (bvult x82 (_ bv9 8)))
(assert (bvult x83 (_ bv9 8)))
(assert (bvult x85 (_ bv9 8)))
(assert (bvult x86 (_ bv9 8)))
(assert (bvult x87 (_ bv9 8)))
(assert (not (= x00 (_ bv8 8))))
(assert (not (= x00 x02)))
(assert (not (= x00 (_ bv6 8))))
(assert (not (= x00 x04)))
(assert (not (= x00 x05)))
(assert (not (= x00 x06)))
(assert (not (= x00 x07)))
(assert (not (= x00 (_ bv7 8))))
(assert (not (= (_ bv8 8) x02)))
(assert (not (= (_ bv8 8) (_ bv6 8))))
(assert (not (= (_ bv8 8) x04)))
(assert (not (= (_ bv8 8) x05)))
(assert (not (= (_ bv8 8) x06)))
(assert (not (= (_ bv8 8) x07)))
(assert (not (= (_ bv8 8) (_ bv7 8))))
(assert (not (= x02 (_ bv6 8))))
(assert (not (= x02 x04)))
(assert (not (= x02 x05)))
(assert (not (= x02 x06)))
(assert (not (= x02 x07)))
(assert (not (= x02 (_ bv7 8))))
(assert (not (= (_ bv6 8) x04)))
(assert (not (= (_ bv6 8) x05)))
(assert (not (= (_ bv6 8) x06)))
(assert (not (= (_ bv6 8) x07)))
(assert (not (= (_ bv6 8) (_ bv7 8))))
(assert (not (= x04 x05)))
(assert (not (= x04 x06)))
(assert (not (= x04 x07)))
(assert (not (= x04 (_ bv7 8))))
(assert (not (= x05 x06)))
(assert (not (= x05 x07)))
(assert (not (= x05 (_ bv7 8))))
(assert (not (= x06 x07)))
(assert (not (= x06 (_ bv7 8))))
(assert (not (= x07 (_ bv7 8))))
(assert (not (= (_ bv7 8) x11)))
(assert (not (= (_ bv7 8) x12)))
(assert (not (= (_ bv7 8) x13)))
(assert (not (= (_ bv7 8) (_ bv4 8))))
(assert (not (= (_ bv7 8) x15)))
(assert (not (= (_ bv7 8) (_ bv5 8))))
(assert (not (= (_ bv7 8) (_ bv9 8))))
(assert (not (= (_ bv7 8) x18)))
(assert (not (= x11 x12)))
(assert (not (= x11 x13)))
(assert (not (= x11 (_ bv4 8))))
(assert (not (= x11 x15)))
(assert (not (= x11 (_ bv5 8))))
(assert (not (= x11 (_ bv9 8))))
(assert (not (= x11 x18)))
(assert (not (= x12 x13)))
(assert (not (= x12 (_ bv4 8))))
(assert (not (= x12 x15)))
(assert (not (= x12 (_ bv5 8))))
(assert (not (= x12 (_ bv9 8))))
(assert (not (= x12 x18)))
(assert (not (= x13 (_ bv4 8))))
(assert (not (= x13 x15)))
(assert (not (= x13 (_ bv5 8))))
(assert (not (= x13 (_ bv9 8))))
(assert (not (= x13 x18)))
(assert (not (= (_ bv4 8) x15)))
(assert (not (= (_ bv4 8) (_ bv5 8))))
(assert (not (= (_ bv4 8) (_ bv9 8))))
(assert (not (= (_ bv4 8) x18)))
(assert (not (= x15 (_ bv5 8))))
(assert (not (= x15 (_ bv9 8))))
(assert (not (= x15 x18)))
(assert (not (= (_ bv5 8) (_ bv9 8))))
(assert (not (= (_ bv5 8) x18)))
(assert (not (= (_ bv9 8) x18)))
(assert (not (= (_ bv3 8) x21)))
(assert (not (= (_ bv3 8) (_ bv2 8))))
(assert (not (= (_ bv3 8) x23)))
(assert (not (= (_ bv3 8) (_ bv7 8))))
(assert (not (= (_ bv3 8) (_ bv9 8))))
(assert (not (= (_ bv3 8) x26)))
(assert (not (= (_ bv3 8) x27)))
(assert (not (= (_ bv3 8) (_ bv1 8))))
(assert (not (= x21 (_ bv2 8))))
(assert (not (= x21 x23)))
(assert (not (= x21 (_ bv7 8))))
(assert (not (= x21 (_ bv9 8))))
(assert (not (= x21 x26)))
(assert (not (= x21 x27)))
(assert (not (= x21 (_ bv1 8))))
(assert (not (= (_ bv2 8) x23)))
(assert (not (= (_ bv2 8) (_ bv7 8))))
(assert (not (= (_ bv2 8) (_ bv9 8))))
(assert (not (= (_ bv2 8) x26)))
(assert (not (= (_ bv2 8) x27)))
(assert (not (= (_ bv2 8) (_ bv1 8))))
(assert (not (= x23 (_ bv7 8))))
(assert (not (= x23 (_ bv9 8))))
(assert (not (= x23 x26)))
(assert (not (= x23 x27)))
(assert (not (= x23 (_ bv1 8))))
(assert (not (= (_ bv7 8) (_ bv9 8))))
(assert (not (= (_ bv7 8) x26)))
(assert (not (= (_ bv7 8) x27)))
(assert (not (= (_ bv7 8) (_ bv1 8))))
(assert (not (= (_ bv9 8) x26)))
(assert (not (= (_ bv9 8) x27)))
(assert (not (= (_ bv9 8) (_ bv1 8))))
(assert (not (= x26 x27)))
(assert (not (= x26 (_ bv1 8))))
(assert (not (= x27 (_ bv1 8))))
(assert (not (= x30 x31)))
(assert (not (= x30 (_ bv3 8))))
(assert (not (= x30 (_ bv8 8))))
(assert (not (= x30 x34)))
(assert (not (= x30 (_ bv4 8))))
(assert (not (= x30 x36)))
(assert (not (= x30 x37)))
(assert (not (= x30 x38)))
(assert (not (= x31 (_ bv3 8))))
(assert (not (= x31 (_ bv8 8))))
(assert (not (= x31 x34)))
(assert (not (= x31 (_ bv4 8))))
(assert (not (= x31 x36)))
(assert (not (= x31 x37)))
(assert (not (= x31 x38)))
(assert (not (= (_ bv3 8) (_ bv8 8))))
(assert (not (= (_ bv3 8) x34)))
(assert (not (= (_ bv3 8) (_ bv4 8))))
(assert (not (= (_ bv3 8) x36)))
(assert (not (= (_ bv3 8) x37)))
(assert (not (= (_ bv3 8) x38)))
(assert (not (= (_ bv8 8) x34)))
(assert (not (= (_ bv8 8) (_ bv4 8))))
(assert (not (= (_ bv8 8) x36)))
(assert (not (= (_ bv8 8) x37)))
(assert (not (= (_ bv8 8) x38)))
(assert (not (= x34 (_ bv4 8))))
(assert (not (= x34 x36)))
(assert (not (= x34 x37)))
(assert (not (= x34 x38)))
(assert (not (= (_ bv4 8) x36)))
(assert (not (= (_ bv4 8) x37)))
(assert (not (= (_ bv4 8) x38)))
(assert (not (= x36 x37)))
(assert (not (= x36 x38)))
(assert (not (= x37 x38)))
(assert (not (= x40 x41)))
(assert (not (= x40 (_ bv6 8))))
(assert (not (= x40 x43)))
(assert (not (= x40 (_ bv5 8))))
(assert (not (= x40 x45)))
(assert (not (= x40 (_ bv1 8))))
(assert (not (= x40 x47)))
(assert (not (= x40 (_ bv8 8))))
(assert (not (= x41 (_ bv6 8))))
(assert (not (= x41 x43)))
(assert (not (= x41 (_ bv5 8))))
(assert (not (= x41 x45)))
(assert (not (= x41 (_ bv1 8))))
(assert (not (= x41 x47)))
(assert (not (= x41 (_ bv8 8))))
(assert (not (= (_ bv6 8) x43)))
(assert (not (= (_ bv6 8) (_ bv5 8))))
(assert (not (= (_ bv6 8) x45)))
(assert (not (= (_ bv6 8) (_ bv1 8))))
(assert (not (= (_ bv6 8) x47)))
(assert (not (= (_ bv6 8) (_ bv8 8))))
(assert (not (= x43 (_ bv5 8))))
(assert (not (= x43 x45)))
(assert (not (= x43 (_ bv1 8))))
(assert (not (= x43 x47)))
(assert (not (= x43 (_ bv8 8))))
(assert (not (= (_ bv5 8) x45)))
(assert (not (= (_ bv5 8) (_ bv1 8))))
(assert (not (= (_ bv5 8) x47)))
(assert (not (= (_ bv5 8) (_ bv8 8))))
(assert (not (= x45 (_ bv1 8))))
(assert (not (= x45 x47)))
(assert (not (= x45 (_ bv8 8))))
(assert (not (= (_ bv1 8) x47)))
(assert (not (= (_ bv1 8) (_ bv8 8))))
(assert (not (= x47 (_ bv8 8))))
(assert (not (= x50 x51)))
(assert (not (= x50 (_ bv9 8))))
(assert (not (= x50 (_ bv2 8))))
(assert (not (= x50 (_ bv1 8))))
(assert (not (= x50 x55)))
(assert (not (= x50 (_ bv4 8))))
(assert (not (= x50 (_ bv5 8))))
(assert (not (= x50 x58)))
(assert (not (= x51 (_ bv9 8))))
(assert (not (= x51 (_ bv2 8))))
(assert (not (= x51 (_ bv1 8))))
(assert (not (= x51 x55)))
(assert (not (= x51 (_ bv4 8))))
(assert (not (= x51 (_ bv5 8))))
(assert (not (= x51 x58)))
(assert (not (= (_ bv9 8) (_ bv2 8))))
(assert (not (= (_ bv9 8) (_ bv1 8))))
(assert (not (= (_ bv9 8) x55)))
(assert (not (= (_ bv9 8) (_ bv4 8))))
(assert (not (= (_ bv9 8) (_ bv5 8))))
(assert (not (= (_ bv9 8) x58)))
(assert (not (= (_ bv2 8) (_ bv1 8))))
(assert (not (= (_ bv2 8) x55)))
(assert (not (= (_ bv2 8) (_ bv4 8))))
(assert (not (= (_ bv2 8) (_ bv5 8))))
(assert (not (= (_ bv2 8) x58)))
(assert (not (= (_ bv1 8) x55)))
(assert (not (= (_ bv1 8) (_ bv4 8))))
(assert (not (= (_ bv1 8) (_ bv5 8))))
(assert (not (= (_ bv1 8) x58)))
(assert (not (= x55 (_ bv4 8))))
(assert (not (= x55 (_ bv5 8))))
(assert (not (= x55 x58)))
(assert (not (= (_ bv4 8) (_ bv5 8))))
(assert (not (= (_ bv4 8) x58)))
(assert (not (= (_ bv5 8) x58)))
(assert (not (= x60 x61)))
(assert (not (= x60 x62)))
(assert (not (= x60 (_ bv4 8))))
(assert (not (= x60 (_ bv9 8))))
(assert (not (= x60 (_ bv6 8))))
(assert (not (= x60 x66)))
(assert (not (= x60 (_ bv2 8))))
(assert (not (= x60 x68)))
(assert (not (= x61 x62)))
(assert (not (= x61 (_ bv4 8))))
(assert (not (= x61 (_ bv9 8))))
(assert (not (= x61 (_ bv6 8))))
(assert (not (= x61 x66)))
(assert (not (= x61 (_ bv2 8))))
(assert (not (= x61 x68)))
(assert (not (= x62 (_ bv4 8))))
(assert (not (= x62 (_ bv9 8))))
(assert (not (= x62 (_ bv6 8))))
(assert (not (= x62 x66)))
(assert (not (= x62 (_ bv2 8))))
(assert (not (= x62 x68)))
(assert (not (= (_ bv4 8) (_ bv9 8))))
(assert (not (= (_ bv4 8) (_ bv6 8))))
(assert (not (= (_ bv4 8) x66)))
(assert (not (= (_ bv4 8) (_ bv2 8))))
(assert (not (= (_ bv4 8) x68)))
(assert (not (= (_ bv9 8) (_ bv6 8))))
(assert (not (= (_ bv9 8) x66)))
(assert (not (= (_ bv9 8) (_ bv2 8))))
(assert (not (= (_ bv9 8) x68)))
(assert (not (= (_ bv6 8) x66)))
(assert (not (= (_ bv6 8) (_ bv2 8))))
(assert (not (= (_ bv6 8) x68)))
(assert (not (= x66 (_ bv2 8))))
(assert (not (= x66 x68)))
(assert (not (= (_ bv2 8) x68)))
(assert (not (= (_ bv2 8) x71)))
(assert (not (= (_ bv2 8) (_ bv7 8))))
(assert (not (= (_ bv2 8) (_ bv1 8))))
(assert (not (= (_ bv2 8) x74)))
(assert (not (= (_ bv2 8) x75)))
(assert (not (= (_ bv2 8) x76)))
(assert (not (= (_ bv2 8) (_ bv6 8))))
(assert (not (= (_ bv2 8) x78)))
(assert (not (= x71 (_ bv7 8))))
(assert (not (= x71 (_ bv1 8))))
(assert (not (= x71 x74)))
(assert (not (= x71 x75)))
(assert (not (= x71 x76)))
(assert (not (= x71 (_ bv6 8))))
(assert (not (= x71 x78)))
(assert (not (= (_ bv7 8) (_ bv1 8))))
(assert (not (= (_ bv7 8) x74)))
(assert (not (= (_ bv7 8) x75)))
(assert (not (= (_ bv7 8) x76)))
(assert (not (= (_ bv7 8) (_ bv6 8))))
(assert (not (= (_ bv7 8) x78)))
(assert (not (= (_ bv1 8) x74)))
(assert (not (= (_ bv1 8) x75)))
(assert (not (= (_ bv1 8) x76)))
(assert (not (= (_ bv1 8) (_ bv6 8))))
(assert (not (= (_ bv1 8) x78)))
(assert (not (= x74 x75)))
(assert (not (= x74 x76)))
(assert (not (= x74 (_ bv6 8))))
(assert (not (= x74 x78)))
(assert (not (= x75 x76)))
(assert (not (= x75 (_ bv6 8))))
(assert (not (= x75 x78)))
(assert (not (= x76 (_ bv6 8))))
(assert (not (= x76 x78)))
(assert (not (= (_ bv6 8) x78)))
(assert (not (= x80 (_ bv5 8))))
(assert (not (= x80 x82)))
(assert (not (= x80 x83)))
(assert (not (= x80 (_ bv8 8))))
(assert (not (= x80 x85)))
(assert (not (= x80 x86)))
(assert (not (= x80 x87)))
(assert (not (= x80 (_ bv3 8))))
(assert (not (= (_ bv5 8) x82)))
(assert (not (= (_ bv5 8) x83)))
(assert (not (= (_ bv5 8) (_ bv8 8))))
(assert (not (= (_ bv5 8) x85)))
(assert (not (= (_ bv5 8) x86)))
(assert (not (= (_ bv5 8) x87)))
(assert (not (= (_ bv5 8) (_ bv3 8))))
(assert (not (= x82 x83)))
(assert (not (= x82 (_ bv8 8))))
(assert (not (= x82 x85)))
(assert (not (= x82 x86)))
(assert (not (= x82 x87)))
(assert (not (= x82 (_ bv3 8))))
(assert (not (= x83 (_ bv8 8))))
(assert (not (= x83 x85)))
(assert (not (= x83 x86)))
(assert (not (= x83 x87)))
(assert (not (= x83 (_ bv3 8))))
(assert (not (= (_ bv8 8) x85)))
(assert (not (= (_ bv8 8) x86)))
(assert (not (= (_ bv8 8) x87)))
(assert (not (= (_ bv8 8) (_ bv3 8))))
(assert (not (= x85 x86)))
(assert (not (= x85 x87)))
(assert (not (= x85 (_ bv3 8))))
(assert (not (= x86 x87)))
(assert (not (= x86 (_ bv3 8))))
(assert (not (= x87 (_ bv3 8))))
(assert (not (= x00 (_ bv7 8))))
(assert (not (= x00 (_ bv3 8))))
(assert (not (= x00 x30)))
(assert (not (= x00 x40)))
(assert (not (= x00 x50)))
(assert (not (= x00 x60)))
(assert (not (= x00 (_ bv2 8))))
(assert (not (= x00 x80)))
(assert (not (= (_ bv7 8) (_ bv3 8))))
(assert (not (= (_ bv7 8) x30)))
(assert (not (= (_ bv7 8) x40)))
(assert (not (= (_ bv7 8) x50)))
(assert (not (= (_ bv7 8) x60)))
(assert (not (= (_ bv7 8) (_ bv2 8))))
(assert (not (= (_ bv7 8) x80)))
(assert (not (= (_ bv3 8) x30)))
(assert (not (= (_ bv3 8) x40)))
(assert (not (= (_ bv3 8) x50)))
(assert (not (= (_ bv3 8) x60)))
(assert (not (= (_ bv3 8) (_ bv2 8))))
(assert (not (= (_ bv3 8) x80)))
(assert (not (= x30 x40)))
(assert (not (= x30 x50)))
(assert (not (= x30 x60)))
(assert (not (= x30 (_ bv2 8))))
(assert (not (= x30 x80)))
(assert (not (= x40 x50)))
(assert (not (= x40 x60)))
(assert (not (= x40 (_ bv2 8))))
(assert (not (= x40 x80)))
(assert (not (= x50 x60)))
(assert (not (= x50 (_ bv2 8))))
(assert (not (= x50 x80)))
(assert (not (= x60 (_ bv2 8))))
(assert (not (= x60 x80)))
(assert (not (= (_ bv2 8) x80)))
(assert (not (= (_ bv8 8) x11)))
(assert (not (= (_ bv8 8) x21)))
(assert (not (= (_ bv8 8) x31)))
(assert (not (= (_ bv8 8) x41)))
(assert (not (= (_ bv8 8) x51)))
(assert (not (= (_ bv8 8) x61)))
(assert (not (= (_ bv8 8) x71)))
(assert (not (= (_ bv8 8) (_ bv5 8))))
(assert (not (= x11 x21)))
(assert (not (= x11 x31)))
(assert (not (= x11 x41)))
(assert (not (= x11 x51)))
(assert (not (= x11 x61)))
(assert (not (= x11 x71)))
(assert (not (= x11 (_ bv5 8))))
(assert (not (= x21 x31)))
(assert (not (= x21 x41)))
(assert (not (= x21 x51)))
(assert (not (= x21 x61)))
(assert (not (= x21 x71)))
(assert (not (= x21 (_ bv5 8))))
(assert (not (= x31 x41)))
(assert (not (= x31 x51)))
(assert (not (= x31 x61)))
(assert (not (= x31 x71)))
(assert (not (= x31 (_ bv5 8))))
(assert (not (= x41 x51)))
(assert (not (= x41 x61)))
(assert (not (= x41 x71)))
(assert (not (= x41 (_ bv5 8))))
(assert (not (= x51 x61)))
(assert (not (= x51 x71)))
(assert (not (= x51 (_ bv5 8))))
(assert (not (= x61 x71)))
(assert (not (= x61 (_ bv5 8))))
(assert (not (= x71 (_ bv5 8))))
(assert (not (= x02 x12)))
(assert (not (= x02 (_ bv2 8))))
(assert (not (= x02 (_ bv3 8))))
(assert (not (= x02 (_ bv6 8))))
(assert (not (= x02 (_ bv9 8))))
(assert (not (= x02 x62)))
(assert (not (= x02 (_ bv7 8))))
(assert (not (= x02 x82)))
(assert (not (= x12 (_ bv2 8))))
(assert (not (= x12 (_ bv3 8))))
(assert (not (= x12 (_ bv6 8))))
(assert (not (= x12 (_ bv9 8))))
(assert (not (= x12 x62)))
(assert (not (= x12 (_ bv7 8))))
(assert (not (= x12 x82)))
(assert (not (= (_ bv2 8) (_ bv3 8))))
(assert (not (= (_ bv2 8) (_ bv6 8))))
(assert (not (= (_ bv2 8) (_ bv9 8))))
(assert (not (= (_ bv2 8) x62)))
(assert (not (= (_ bv2 8) (_ bv7 8))))
(assert (not (= (_ bv2 8) x82)))
(assert (not (= (_ bv3 8) (_ bv6 8))))
(assert (not (= (_ bv3 8) (_ bv9 8))))
(assert (not (= (_ bv3 8) x62)))
(assert (not (= (_ bv3 8) (_ bv7 8))))
(assert (not (= (_ bv3 8) x82)))
(assert (not (= (_ bv6 8) (_ bv9 8))))
(assert (not (= (_ bv6 8) x62)))
(assert (not (= (_ bv6 8) (_ bv7 8))))
(assert (not (= (_ bv6 8) x82)))
(assert (not (= (_ bv9 8) x62)))
(assert (not (= (_ bv9 8) (_ bv7 8))))
(assert (not (= (_ bv9 8) x82)))
(assert (not (= x62 (_ bv7 8))))
(assert (not (= x62 x82)))
(assert (not (= (_ bv7 8) x82)))
(assert (not (= (_ bv6 8) x13)))
(assert (not (= (_ bv6 8) x23)))
(assert (not (= (_ bv6 8) (_ bv8 8))))
(assert (not (= (_ bv6 8) x43)))
(assert (not (= (_ bv6 8) (_ bv2 8))))
(assert (not (= (_ bv6 8) (_ bv4 8))))
(assert (not (= (_ bv6 8) (_ bv1 8))))
(assert (not (= (_ bv6 8) x83)))
(assert (not (= x13 x23)))
(assert (not (= x13 (_ bv8 8))))
(assert (not (= x13 x43)))
(assert (not (= x13 (_ bv2 8))))
(assert (not (= x13 (_ bv4 8))))
(assert (not (= x13 (_ bv1 8))))
(assert (not (= x13 x83)))
(assert (not (= x23 (_ bv8 8))))
(assert (not (= x23 x43)))
(assert (not (= x23 (_ bv2 8))))
(assert (not (= x23 (_ bv4 8))))
(assert (not (= x23 (_ bv1 8))))
(assert (not (= x23 x83)))
(assert (not (= (_ bv8 8) x43)))
(assert (not (= (_ bv8 8) (_ bv2 8))))
(assert (not (= (_ bv8 8) (_ bv4 8))))
(assert (not (= (_ bv8 8) (_ bv1 8))))
(assert (not (= (_ bv8 8) x83)))
(assert (not (= x43 (_ bv2 8))))
(assert (not (= x43 (_ bv4 8))))
(assert (not (= x43 (_ bv1 8))))
(assert (not (= x43 x83)))
(assert (not (= (_ bv2 8) (_ bv4 8))))
(assert (not (= (_ bv2 8) (_ bv1 8))))
(assert (not (= (_ bv2 8) x83)))
(assert (not (= (_ bv4 8) (_ bv1 8))))
(assert (not (= (_ bv4 8) x83)))
(assert (not (= (_ bv1 8) x83)))
(assert (not (= x04 (_ bv4 8))))
(assert (not (= x04 (_ bv7 8))))
(assert (not (= x04 x34)))
(assert (not (= x04 (_ bv5 8))))
(assert (not (= x04 (_ bv1 8))))
(assert (not (= x04 (_ bv9 8))))
(assert (not (= x04 x74)))
(assert (not (= x04 (_ bv8 8))))
(assert (not (= (_ bv4 8) (_ bv7 8))))
(assert (not (= (_ bv4 8) x34)))
(assert (not (= (_ bv4 8) (_ bv5 8))))
(assert (not (= (_ bv4 8) (_ bv1 8))))
(assert (not (= (_ bv4 8) (_ bv9 8))))
(assert (not (= (_ bv4 8) x74)))
(assert (not (= (_ bv4 8) (_ bv8 8))))
(assert (not (= (_ bv7 8) x34)))
(assert (not (= (_ bv7 8) (_ bv5 8))))
(assert (not (= (_ bv7 8) (_ bv1 8))))
(assert (not (= (_ bv7 8) (_ bv9 8))))
(assert (not (= (_ bv7 8) x74)))
(assert (not (= (_ bv7 8) (_ bv8 8))))
(assert (not (= x34 (_ bv5 8))))
(assert (not (= x34 (_ bv1 8))))
(assert (not (= x34 (_ bv9 8))))
(assert (not (= x34 x74)))
(assert (not (= x34 (_ bv8 8))))
(assert (not (= (_ bv5 8) (_ bv1 8))))
(assert (not (= (_ bv5 8) (_ bv9 8))))
(assert (not (= (_ bv5 8) x74)))
(assert (not (= (_ bv5 8) (_ bv8 8))))
(assert (not (= (_ bv1 8) (_ bv9 8))))
(assert (not (= (_ bv1 8) x74)))
(assert (not (= (_ bv1 8) (_ bv8 8))))
(assert (not (= (_ bv9 8) x74)))
(assert (not (= (_ bv9 8) (_ bv8 8))))
(assert (not (= x74 (_ bv8 8))))
(assert (not (= x05 x15)))
(assert (not (= x05 (_ bv9 8))))
(assert (not (= x05 (_ bv4 8))))
(assert (not (= x05 x45)))
(assert (not (= x05 x55)))
(assert (not (= x05 (_ bv6 8))))
(assert (not (= x05 x75)))
(assert (not (= x05 x85)))
(assert (not (= x15 (_ bv9 8))))
(assert (not (= x15 (_ bv4 8))))
(assert (not (= x15 x45)))
(assert (not (= x15 x55)))
(assert (not (= x15 (_ bv6 8))))
(assert (not (= x15 x75)))
(assert (not (= x15 x85)))
(assert (not (= (_ bv9 8) (_ bv4 8))))
(assert (not (= (_ bv9 8) x45)))
(assert (not (= (_ bv9 8) x55)))
(assert (not (= (_ bv9 8) (_ bv6 8))))
(assert (not (= (_ bv9 8) x75)))
(assert (not (= (_ bv9 8) x85)))
(assert (not (= (_ bv4 8) x45)))
(assert (not (= (_ bv4 8) x55)))
(assert (not (= (_ bv4 8) (_ bv6 8))))
(assert (not (= (_ bv4 8) x75)))
(assert (not (= (_ bv4 8) x85)))
(assert (not (= x45 x55)))
(assert (not (= x45 (_ bv6 8))))
(assert (not (= x45 x75)))
(assert (not (= x45 x85)))
(assert (not (= x55 (_ bv6 8))))
(assert (not (= x55 x75)))
(assert (not (= x55 x85)))
(assert (not (= (_ bv6 8) x75)))
(assert (not (= (_ bv6 8) x85)))
(assert (not (= x75 x85)))
(assert (not (= x06 (_ bv5 8))))
(assert (not (= x06 x26)))
(assert (not (= x06 x36)))
(assert (not (= x06 (_ bv1 8))))
(assert (not (= x06 (_ bv4 8))))
(assert (not (= x06 x66)))
(assert (not (= x06 x76)))
(assert (not (= x06 x86)))
(assert (not (= (_ bv5 8) x26)))
(assert (not (= (_ bv5 8) x36)))
(assert (not (= (_ bv5 8) (_ bv1 8))))
(assert (not (= (_ bv5 8) (_ bv4 8))))
(assert (not (= (_ bv5 8) x66)))
(assert (not (= (_ bv5 8) x76)))
(assert (not (= (_ bv5 8) x86)))
(assert (not (= x26 x36)))
(assert (not (= x26 (_ bv1 8))))
(assert (not (= x26 (_ bv4 8))))
(assert (not (= x26 x66)))
(assert (not (= x26 x76)))
(assert (not (= x26 x86)))
(assert (not (= x36 (_ bv1 8))))
(assert (not (= x36 (_ bv4 8))))
(assert (not (= x36 x66)))
(assert (not (= x36 x76)))
(assert (not (= x36 x86)))
(assert (not (= (_ bv1 8) (_ bv4 8))))
(assert (not (= (_ bv1 8) x66)))
(assert (not (= (_ bv1 8) x76)))
(assert (not (= (_ bv1 8) x86)))
(assert (not (= (_ bv4 8) x66)))
(assert (not (= (_ bv4 8) x76)))
(assert (not (= (_ bv4 8) x86)))
(assert (not (= x66 x76)))
(assert (not (= x66 x86)))
(assert (not (= x76 x86)))
(assert (not (= x07 (_ bv9 8))))
(assert (not (= x07 x27)))
(assert (not (= x07 x37)))
(assert (not (= x07 x47)))
(assert (not (= x07 (_ bv5 8))))
(assert (not (= x07 (_ bv2 8))))
(assert (not (= x07 (_ bv6 8))))
(assert (not (= x07 x87)))
(assert (not (= (_ bv9 8) x27)))
(assert (not (= (_ bv9 8) x37)))
(assert (not (= (_ bv9 8) x47)))
(assert (not (= (_ bv9 8) (_ bv5 8))))
(assert (not (= (_ bv9 8) (_ bv2 8))))
(assert (not (= (_ bv9 8) (_ bv6 8))))
(assert (not (= (_ bv9 8) x87)))
(assert (not (= x27 x37)))
(assert (not (= x27 x47)))
(assert (not (= x27 (_ bv5 8))))
(assert (not (= x27 (_ bv2 8))))
(assert (not (= x27 (_ bv6 8))))
(assert (not (= x27 x87)))
(assert (not (= x37 x47)))
(assert (not (= x37 (_ bv5 8))))
(assert (not (= x37 (_ bv2 8))))
(assert (not (= x37 (_ bv6 8))))
(assert (not (= x37 x87)))
(assert (not (= x47 (_ bv5 8))))
(assert (not (= x47 (_ bv2 8))))
(assert (not (= x47 (_ bv6 8))))
(assert (not (= x47 x87)))
(assert (not (= (_ bv5 8) (_ bv2 8))))
(assert (not (= (_ bv5 8) (_ bv6 8))))
(assert (not (= (_ bv5 8) x87)))
(assert (not (= (_ bv2 8) (_ bv6 8))))
(assert (not (= (_ bv2 8) x87)))
(assert (not (= (_ bv6 8) x87)))
(assert (not (= (_ bv7 8) x18)))
(assert (not (= (_ bv7 8) (_ bv1 8))))
(assert (not (= (_ bv7 8) x38)))
(assert (not (= (_ bv7 8) (_ bv8 8))))
(assert (not (= (_ bv7 8) x58)))
(assert (not (= (_ bv7 8) x68)))
(assert (not (= (_ bv7 8) x78)))
(assert (not (= (_ bv7 8) (_ bv3 8))))
(assert (not (= x18 (_ bv1 8))))
(assert (not (= x18 x38)))
(assert (not (= x18 (_ bv8 8))))
(assert (not (= x18 x58)))
(assert (not (= x18 x68)))
(assert (not (= x18 x78)))
(assert (not (= x18 (_ bv3 8))))
(assert (not (= (_ bv1 8) x38)))
(assert (not (= (_ bv1 8) (_ bv8 8))))
(assert (not (= (_ bv1 8) x58)))
(assert (not (= (_ bv1 8) x68)))
(assert (not (= (_ bv1 8) x78)))
(assert (not (= (_ bv1 8) (_ bv3 8))))
(assert (not (= x38 (_ bv8 8))))
(assert (not (= x38 x58)))
(assert (not (= x38 x68)))
(assert (not (= x38 x78)))
(assert (not (= x38 (_ bv3 8))))
(assert (not (= (_ bv8 8) x58)))
(assert (not (= (_ bv8 8) x68)))
(assert (not (= (_ bv8 8) x78)))
(assert (not (= (_ bv8 8) (_ bv3 8))))
(assert (not (= x58 x68)))
(assert (not (= x58 x78)))
(assert (not (= x58 (_ bv3 8))))
(assert (not (= x68 x78)))
(assert (not (= x68 (_ bv3 8))))
(assert (not (= x78 (_ bv3 8))))
(assert (not (= x00 (_ bv8 8))))
(assert (not (= x00 x02)))
(assert (not (= x00 (_ bv7 8))))
(assert (not (= x00 x11)))
(assert (not (= x00 x12)))
(assert (not (= x00 (_ bv3 8))))
(assert (not (= x00 x21)))
(assert (not (= x00 (_ bv2 8))))
(assert (not (= (_ bv8 8) x02)))
(assert (not (= (_ bv8 8) (_ bv7 8))))
(assert (not (= (_ bv8 8) x11)))
(assert (not (= (_ bv8 8) x12)))
(assert (not (= (_ bv8 8) (_ bv3 8))))
(assert (not (= (_ bv8 8) x21)))
(assert (not (= (_ bv8 8) (_ bv2 8))))
(assert (not (= x02 (_ bv7 8))))
(assert (not (= x02 x11)))
(assert (not (= x02 x12)))
(assert (not (= x02 (_ bv3 8))))
(assert (not (= x02 x21)))
(assert (not (= x02 (_ bv2 8))))
(assert (not (= (_ bv7 8) x11)))
(assert (not (= (_ bv7 8) x12)))
(assert (not (= (_ bv7 8) (_ bv3 8))))
(assert (not (= (_ bv7 8) x21)))
(assert (not (= (_ bv7 8) (_ bv2 8))))
(assert (not (= x11 x12)))
(assert (not (= x11 (_ bv3 8))))
(assert (not (= x11 x21)))
(assert (not (= x11 (_ bv2 8))))
(assert (not (= x12 (_ bv3 8))))
(assert (not (= x12 x21)))
(assert (not (= x12 (_ bv2 8))))
(assert (not (= (_ bv3 8) x21)))
(assert (not (= (_ bv3 8) (_ bv2 8))))
(assert (not (= x21 (_ bv2 8))))
(assert (not (= (_ bv6 8) x04)))
(assert (not (= (_ bv6 8) x05)))
(assert (not (= (_ bv6 8) x13)))
(assert (not (= (_ bv6 8) (_ bv4 8))))
(assert (not (= (_ bv6 8) x15)))
(assert (not (= (_ bv6 8) x23)))
(assert (not (= (_ bv6 8) (_ bv7 8))))
(assert (not (= (_ bv6 8) (_ bv9 8))))
(assert (not (= x04 x05)))
(assert (not (= x04 x13)))
(assert (not (= x04 (_ bv4 8))))
(assert (not (= x04 x15)))
(assert (not (= x04 x23)))
(assert (not (= x04 (_ bv7 8))))
(assert (not (= x04 (_ bv9 8))))
(assert (not (= x05 x13)))
(assert (not (= x05 (_ bv4 8))))
(assert (not (= x05 x15)))
(assert (not (= x05 x23)))
(assert (not (= x05 (_ bv7 8))))
(assert (not (= x05 (_ bv9 8))))
(assert (not (= x13 (_ bv4 8))))
(assert (not (= x13 x15)))
(assert (not (= x13 x23)))
(assert (not (= x13 (_ bv7 8))))
(assert (not (= x13 (_ bv9 8))))
(assert (not (= (_ bv4 8) x15)))
(assert (not (= (_ bv4 8) x23)))
(assert (not (= (_ bv4 8) (_ bv7 8))))
(assert (not (= (_ bv4 8) (_ bv9 8))))
(assert (not (= x15 x23)))
(assert (not (= x15 (_ bv7 8))))
(assert (not (= x15 (_ bv9 8))))
(assert (not (= x23 (_ bv7 8))))
(assert (not (= x23 (_ bv9 8))))
(assert (not (= (_ bv7 8) (_ bv9 8))))
(assert (not (= x06 x07)))
(assert (not (= x06 (_ bv7 8))))
(assert (not (= x06 (_ bv5 8))))
(assert (not (= x06 (_ bv9 8))))
(assert (not (= x06 x18)))
(assert (not (= x06 x26)))
(assert (not (= x06 x27)))
(assert (not (= x06 (_ bv1 8))))
(assert (not (= x07 (_ bv7 8))))
(assert (not (= x07 (_ bv5 8))))
(assert (not (= x07 (_ bv9 8))))
(assert (not (= x07 x18)))
(assert (not (= x07 x26)))
(assert (not (= x07 x27)))
(assert (not (= x07 (_ bv1 8))))
(assert (not (= (_ bv7 8) (_ bv5 8))))
(assert (not (= (_ bv7 8) (_ bv9 8))))
(assert (not (= (_ bv7 8) x18)))
(assert (not (= (_ bv7 8) x26)))
(assert (not (= (_ bv7 8) x27)))
(assert (not (= (_ bv7 8) (_ bv1 8))))
(assert (not (= (_ bv5 8) (_ bv9 8))))
(assert (not (= (_ bv5 8) x18)))
(assert (not (= (_ bv5 8) x26)))
(assert (not (= (_ bv5 8) x27)))
(assert (not (= (_ bv5 8) (_ bv1 8))))
(assert (not (= (_ bv9 8) x18)))
(assert (not (= (_ bv9 8) x26)))
(assert (not (= (_ bv9 8) x27)))
(assert (not (= (_ bv9 8) (_ bv1 8))))
(assert (not (= x18 x26)))
(assert (not (= x18 x27)))
(assert (not (= x18 (_ bv1 8))))
(assert (not (= x26 x27)))
(assert (not (= x26 (_ bv1 8))))
(assert (not (= x27 (_ bv1 8))))
(assert (not (= x30 x31)))
(assert (not (= x30 (_ bv3 8))))
(assert (not (= x30 x40)))
(assert (not (= x30 x41)))
(assert (not (= x30 (_ bv6 8))))
(assert (not (= x30 x50)))
(assert (not (= x30 x51)))
(assert (not (= x30 (_ bv9 8))))
(assert (not (= x31 (_ bv3 8))))
(assert (not (= x31 x40)))
(assert (not (= x31 x41)))
(assert (not (= x31 (_ bv6 8))))
(assert (not (= x31 x50)))
(assert (not (= x31 x51)))
(assert (not (= x31 (_ bv9 8))))
(assert (not (= (_ bv3 8) x40)))
(assert (not (= (_ bv3 8) x41)))
(assert (not (= (_ bv3 8) (_ bv6 8))))
(assert (not (= (_ bv3 8) x50)))
(assert (not (= (_ bv3 8) x51)))
(assert (not (= (_ bv3 8) (_ bv9 8))))
(assert (not (= x40 x41)))
(assert (not (= x40 (_ bv6 8))))
(assert (not (= x40 x50)))
(assert (not (= x40 x51)))
(assert (not (= x40 (_ bv9 8))))
(assert (not (= x41 (_ bv6 8))))
(assert (not (= x41 x50)))
(assert (not (= x41 x51)))
(assert (not (= x41 (_ bv9 8))))
(assert (not (= (_ bv6 8) x50)))
(assert (not (= (_ bv6 8) x51)))
(assert (not (= (_ bv6 8) (_ bv9 8))))
(assert (not (= x50 x51)))
(assert (not (= x50 (_ bv9 8))))
(assert (not (= x51 (_ bv9 8))))
(assert (not (= (_ bv8 8) x34)))
(assert (not (= (_ bv8 8) (_ bv4 8))))
(assert (not (= (_ bv8 8) x43)))
(assert (not (= (_ bv8 8) (_ bv5 8))))
(assert (not (= (_ bv8 8) x45)))
(assert (not (= (_ bv8 8) (_ bv2 8))))
(assert (not (= (_ bv8 8) (_ bv1 8))))
(assert (not (= (_ bv8 8) x55)))
(assert (not (= x34 (_ bv4 8))))
(assert (not (= x34 x43)))
(assert (not (= x34 (_ bv5 8))))
(assert (not (= x34 x45)))
(assert (not (= x34 (_ bv2 8))))
(assert (not (= x34 (_ bv1 8))))
(assert (not (= x34 x55)))
(assert (not (= (_ bv4 8) x43)))
(assert (not (= (_ bv4 8) (_ bv5 8))))
(assert (not (= (_ bv4 8) x45)))
(assert (not (= (_ bv4 8) (_ bv2 8))))
(assert (not (= (_ bv4 8) (_ bv1 8))))
(assert (not (= (_ bv4 8) x55)))
(assert (not (= x43 (_ bv5 8))))
(assert (not (= x43 x45)))
(assert (not (= x43 (_ bv2 8))))
(assert (not (= x43 (_ bv1 8))))
(assert (not (= x43 x55)))
(assert (not (= (_ bv5 8) x45)))
(assert (not (= (_ bv5 8) (_ bv2 8))))
(assert (not (= (_ bv5 8) (_ bv1 8))))
(assert (not (= (_ bv5 8) x55)))
(assert (not (= x45 (_ bv2 8))))
(assert (not (= x45 (_ bv1 8))))
(assert (not (= x45 x55)))
(assert (not (= (_ bv2 8) (_ bv1 8))))
(assert (not (= (_ bv2 8) x55)))
(assert (not (= (_ bv1 8) x55)))
(assert (not (= x36 x37)))
(assert (not (= x36 x38)))
(assert (not (= x36 (_ bv1 8))))
(assert (not (= x36 x47)))
(assert (not (= x36 (_ bv8 8))))
(assert (not (= x36 (_ bv4 8))))
(assert (not (= x36 (_ bv5 8))))
(assert (not (= x36 x58)))
(assert (not (= x37 x38)))
(assert (not (= x37 (_ bv1 8))))
(assert (not (= x37 x47)))
(assert (not (= x37 (_ bv8 8))))
(assert (not (= x37 (_ bv4 8))))
(assert (not (= x37 (_ bv5 8))))
(assert (not (= x37 x58)))
(assert (not (= x38 (_ bv1 8))))
(assert (not (= x38 x47)))
(assert (not (= x38 (_ bv8 8))))
(assert (not (= x38 (_ bv4 8))))
(assert (not (= x38 (_ bv5 8))))
(assert (not (= x38 x58)))
(assert (not (= (_ bv1 8) x47)))
(assert (not (= (_ bv1 8) (_ bv8 8))))
(assert (not (= (_ bv1 8) (_ bv4 8))))
(assert (not (= (_ bv1 8) (_ bv5 8))))
(assert (not (= (_ bv1 8) x58)))
(assert (not (= x47 (_ bv8 8))))
(assert (not (= x47 (_ bv4 8))))
(assert (not (= x47 (_ bv5 8))))
(assert (not (= x47 x58)))
(assert (not (= (_ bv8 8) (_ bv4 8))))
(assert (not (= (_ bv8 8) (_ bv5 8))))
(assert (not (= (_ bv8 8) x58)))
(assert (not (= (_ bv4 8) (_ bv5 8))))
(assert (not (= (_ bv4 8) x58)))
(assert (not (= (_ bv5 8) x58)))
(assert (not (= x60 x61)))
(assert (not (= x60 x62)))
(assert (not (= x60 (_ bv2 8))))
(assert (not (= x60 x71)))
(assert (not (= x60 (_ bv7 8))))
(assert (not (= x60 x80)))
(assert (not (= x60 (_ bv5 8))))
(assert (not (= x60 x82)))
(assert (not (= x61 x62)))
(assert (not (= x61 (_ bv2 8))))
(assert (not (= x61 x71)))
(assert (not (= x61 (_ bv7 8))))
(assert (not (= x61 x80)))
(assert (not (= x61 (_ bv5 8))))
(assert (not (= x61 x82)))
(assert (not (= x62 (_ bv2 8))))
(assert (not (= x62 x71)))
(assert (not (= x62 (_ bv7 8))))
(assert (not (= x62 x80)))
(assert (not (= x62 (_ bv5 8))))
(assert (not (= x62 x82)))
(assert (not (= (_ bv2 8) x71)))
(assert (not (= (_ bv2 8) (_ bv7 8))))
(assert (not (= (_ bv2 8) x80)))
(assert (not (= (_ bv2 8) (_ bv5 8))))
(assert (not (= (_ bv2 8) x82)))
(assert (not (= x71 (_ bv7 8))))
(assert (not (= x71 x80)))
(assert (not (= x71 (_ bv5 8))))
(assert (not (= x71 x82)))
(assert (not (= (_ bv7 8) x80)))
(assert (not (= (_ bv7 8) (_ bv5 8))))
(assert (not (= (_ bv7 8) x82)))
(assert (not (= x80 (_ bv5 8))))
(assert (not (= x80 x82)))
(assert (not (= (_ bv5 8) x82)))
(assert (not (= (_ bv4 8) (_ bv9 8))))
(assert (not (= (_ bv4 8) (_ bv6 8))))
(assert (not (= (_ bv4 8) (_ bv1 8))))
(assert (not (= (_ bv4 8) x74)))
(assert (not (= (_ bv4 8) x75)))
(assert (not (= (_ bv4 8) x83)))
(assert (not (= (_ bv4 8) (_ bv8 8))))
(assert (not (= (_ bv4 8) x85)))
(assert (not (= (_ bv9 8) (_ bv6 8))))
(assert (not (= (_ bv9 8) (_ bv1 8))))
(assert (not (= (_ bv9 8) x74)))
(assert (not (= (_ bv9 8) x75)))
(assert (not (= (_ bv9 8) x83)))
(assert (not (= (_ bv9 8) (_ bv8 8))))
(assert (not (= (_ bv9 8) x85)))
(assert (not (= (_ bv6 8) (_ bv1 8))))
(assert (not (= (_ bv6 8) x74)))
(assert (not (= (_ bv6 8) x75)))
(assert (not (= (_ bv6 8) x83)))
(assert (not (= (_ bv6 8) (_ bv8 8))))
(assert (not (= (_ bv6 8) x85)))
(assert (not (= (_ bv1 8) x74)))
(assert (not (= (_ bv1 8) x75)))
(assert (not (= (_ bv1 8) x83)))
(assert (not (= (_ bv1 8) (_ bv8 8))))
(assert (not (= (_ bv1 8) x85)))
(assert (not (= x74 x75)))
(assert (not (= x74 x83)))
(assert (not (= x74 (_ bv8 8))))
(assert (not (= x74 x85)))
(assert (not (= x75 x83)))
(assert (not (= x75 (_ bv8 8))))
(assert (not (= x75 x85)))
(assert (not (= x83 (_ bv8 8))))
(assert (not (= x83 x85)))
(assert (not (= (_ bv8 8) x85)))
(assert (not (= x66 (_ bv2 8))))
(assert (not (= x66 x68)))
(assert (not (= x66 x76)))
(assert (not (= x66 (_ bv6 8))))
(assert (not (= x66 x78)))
(assert (not (= x66 x86)))
(assert (not (= x66 x87)))
(assert (not (= x66 (_ bv3 8))))
(assert (not (= (_ bv2 8) x68)))
(assert (not (= (_ bv2 8) x76)))
(assert (not (= (_ bv2 8) (_ bv6 8))))
(assert (not (= (_ bv2 8) x78)))
(assert (not (= (_ bv2 8) x86)))
(assert (not (= (_ bv2 8) x87)))
(assert (not (= (_ bv2 8) (_ bv3 8))))
(assert (not (= x68 x76)))
(assert (not (= x68 (_ bv6 8))))
(assert (not (= x68 x78)))
(assert (not (= x68 x86)))
(assert (not (= x68 x87)))
(assert (not (= x68 (_ bv3 8))))
(assert (not (= x76 (_ bv6 8))))
(assert (not (= x76 x78)))
(assert (not (= x76 x86)))
(assert (not (= x76 x87)))
(assert (not (= x76 (_ bv3 8))))
(assert (not (= (_ bv6 8) x78)))
(assert (not (= (_ bv6 8) x86)))
(assert (not (= (_ bv6 8) x87)))
(assert (not (= (_ bv6 8) (_ bv3 8))))
(assert (not (= x78 x86)))
(assert (not (= x78 x87)))
(assert (not (= x78 (_ bv3 8))))
(assert (not (= x86 x87)))
(assert (not (= x86 (_ bv3 8))))
(assert (not (= x87 (_ bv3 8))))
(check-sat)
(exit)
